Welcome to the CBC MILP Solver 
Version: Trunk
Build Date: Apr 16 2020 

Starting solution of the Linear programming relaxation problem using Primal Simplex

Using Python-MIP package version 1.8.1
Machines:  4 Jobs:  4
Order: 
Job  0 : machine 0 ( 10 ) machine 3 ( 1 ) machine 2 ( 6 ) machine 1 ( 7 ) 
Job  1 : machine 0 ( 1 ) machine 3 ( 7 ) machine 1 ( 5 ) machine 2 ( 8 ) 
Job  2 : machine 3 ( 9 ) machine 2 ( 3 ) machine 1 ( 7 ) machine 0 ( 1 ) 
Job  3 : machine 1 ( 7 ) machine 3 ( 3 ) machine 0 ( 9 ) machine 2 ( 10 ) 
K:  44
Job  0 , e: machine  0 ( 0 ) machine  1 ( 17 ) machine  2 ( 11 ) machine  3 ( 10 ) 
Job  1 , e: machine  0 ( 0 ) machine  1 ( 8 ) machine  2 ( 13 ) machine  3 ( 1 ) 
Job  2 , e: machine  0 ( 19 ) machine  1 ( 12 ) machine  2 ( 9 ) machine  3 ( 0 ) 
Job  3 , e: machine  0 ( 10 ) machine  1 ( 0 ) machine  2 ( 19 ) machine  3 ( 7 ) 
Job  0 , f: machine  0 ( 14 ) machine  1 ( 0 ) machine  2 ( 7 ) machine  3 ( 13 ) 
Job  1 , f: machine  0 ( 20 ) machine  1 ( 8 ) machine  2 ( 0 ) machine  3 ( 13 ) 
Job  2 , f: machine  0 ( 0 ) machine  1 ( 1 ) machine  2 ( 8 ) machine  3 ( 11 ) 
Job  3 , f: machine  0 ( 10 ) machine  1 ( 22 ) machine  2 ( 0 ) machine  3 ( 19 ) 
EST and LST:
Job: 0 Machine: 0 EST: 0 LST: 20
Job: 0 Machine: 1 EST: 17 LST: 37
Job: 0 Machine: 2 EST: 11 LST: 31
Job: 0 Machine: 3 EST: 10 LST: 30
Job: 1 Machine: 0 EST: 0 LST: 23
Job: 1 Machine: 1 EST: 8 LST: 31
Job: 1 Machine: 2 EST: 13 LST: 36
Job: 1 Machine: 3 EST: 1 LST: 24
Job: 2 Machine: 0 EST: 19 LST: 43
Job: 2 Machine: 1 EST: 12 LST: 36
Job: 2 Machine: 2 EST: 9 LST: 33
Job: 2 Machine: 3 EST: 0 LST: 24
Job: 3 Machine: 0 EST: 10 LST: 25
Job: 3 Machine: 1 EST: 0 LST: 15
Job: 3 Machine: 2 EST: 19 LST: 34
Job: 3 Machine: 3 EST: 7 LST: 22
Order:
Job: 0 Machine: 0 = 0 
Job: 0 Machine: 1 = 3 
Job: 0 Machine: 2 = 2 
Job: 0 Machine: 3 = 1 
Job: 1 Machine: 0 = 0 
Job: 1 Machine: 1 = 2 
Job: 1 Machine: 2 = 3 
Job: 1 Machine: 3 = 1 
Job: 2 Machine: 0 = 3 
Job: 2 Machine: 1 = 2 
Job: 2 Machine: 2 = 1 
Job: 2 Machine: 3 = 0 
Job: 3 Machine: 0 = 2 
Job: 3 Machine: 1 = 0 
Job: 3 Machine: 2 = 3 
Job: 3 Machine: 3 = 1 
Distances:
Job 0, Machine 0 -> Machine 3: distance 10
Job 0, Machine 0 -> Machine 2: distance 11
Job 0, Machine 0 -> Machine 1: distance 17
Job 0, Machine 3 -> Machine 2: distance 1
Job 0, Machine 3 -> Machine 1: distance 7
Job 0, Machine 2 -> Machine 1: distance 6
Job 1, Machine 0 -> Machine 3: distance 1
Job 1, Machine 0 -> Machine 1: distance 8
Job 1, Machine 0 -> Machine 2: distance 13
Job 1, Machine 3 -> Machine 1: distance 7
Job 1, Machine 3 -> Machine 2: distance 12
Job 1, Machine 1 -> Machine 2: distance 5
Job 2, Machine 3 -> Machine 2: distance 9
Job 2, Machine 3 -> Machine 1: distance 12
Job 2, Machine 3 -> Machine 0: distance 19
Job 2, Machine 2 -> Machine 1: distance 3
Job 2, Machine 2 -> Machine 0: distance 10
Job 2, Machine 1 -> Machine 0: distance 7
Job 3, Machine 1 -> Machine 3: distance 7
Job 3, Machine 1 -> Machine 0: distance 10
Job 3, Machine 1 -> Machine 2: distance 19
Job 3, Machine 3 -> Machine 0: distance 3
Job 3, Machine 3 -> Machine 2: distance 12
Job 3, Machine 0 -> Machine 2: distance 9
McCormic linearization
[(0, 1), (0, 0), (3, 0), (3, 1), (2, 1), (2, 0), (1, 0), (1, 1)]
obj:  0.5999999999999999
solutions:  1
+ x(0,0) + 0.09999999999999998x(1,0) 
C:  29.0
x(0,0) = 0.73	 x(0,1) = 22.00	 x(0,2) = 11.73	 x(0,3) = 10.73	 
x(1,0) = 2.73	 x(1,1) = 10.73	 x(1,2) = 15.73	 x(1,3) = 3.73	 
x(2,0) = 22.73	 x(2,1) = 15.73	 x(2,2) = 12.73	 x(2,3) = 3.73	 
x(3,0) = 10.00	 x(3,1) = 0.00	 x(3,2) = 19.00	 x(3,3) = 7.00	 
y(0,1,0) = 0.13	 y(1,0,0) = 0.87	 
y(0,2,0) = 0.64	 y(2,0,0) = 0.36	 
y(0,3,0) = 0.96	 y(3,0,0) = 0.04	 
y(1,2,0) = 0.48	 y(2,1,0) = 0.52	 
y(1,3,0) = 0.74	 y(3,1,0) = 0.26	 
y(2,3,0) = 0.00	 y(3,2,0) = 1.00	 
y(0,1,1) = 0.14	 y(1,0,1) = 0.86	 
y(0,2,1) = 0.03	 y(2,0,1) = 0.97	 
y(0,3,1) = 0.00	 y(3,0,1) = 1.00	 
y(1,2,1) = 0.34	 y(2,1,1) = 0.66	 
y(1,3,1) = 0.16	 y(3,1,1) = 0.84	 
y(2,3,1) = 0.00	 y(3,2,1) = 1.00	 
y(0,1,2) = 0.36	 y(1,0,2) = 0.64	 
y(0,2,2) = 0.39	 y(2,0,2) = 0.61	 
y(0,3,2) = 1.00	 y(3,0,2) = 0.00	 
y(1,2,2) = 0.00	 y(2,1,2) = 1.00	 
y(1,3,2) = 0.43	 y(3,1,2) = 0.57	 
y(2,3,2) = 0.85	 y(3,2,2) = 0.15	 
y(0,1,3) = 0.00	 y(1,0,3) = 1.00	 
y(0,2,3) = 0.09	 y(2,0,3) = 0.91	 
y(0,3,3) = 0.04	 y(3,0,3) = 0.96	 
y(1,2,3) = 0.28	 y(2,1,3) = 0.72	 
y(1,3,3) = 0.26	 y(3,1,3) = 0.74	 
y(2,3,3) = 0.25	 y(3,2,3) = 0.75	 
obj:  0.9174311926605506
solutions:  1
+ 0.09174311926605479x(0,0) + 0.08256880733944957x(3,0) + 0.009174311926605488x(1,0) 
[(0, 1), (0, 0), (3, 0), (3, 1), (2, 1), (2, 0), (1, 0), (1, 1)]
cliques:  1 mip: 97
C:  29.0
x(0,0) = 1.82	 x(0,1) = 22.00	 x(0,2) = 12.82	 x(0,3) = 11.82	 
x(1,0) = 0.82	 x(1,1) = 8.82	 x(1,2) = 13.82	 x(1,3) = 1.82	 
x(2,0) = 22.33	 x(2,1) = 15.33	 x(2,2) = 12.33	 x(2,3) = 3.33	 
x(3,0) = 10.00	 x(3,1) = 0.00	 x(3,2) = 19.00	 x(3,3) = 7.00	 
y(0,1,0) = 0.00	 y(1,0,0) = 1.00	 
y(0,2,0) = 0.68	 y(2,0,0) = 0.32	 
y(0,3,0) = 0.91	 y(3,0,0) = 0.09	 
y(1,2,0) = 0.51	 y(2,1,0) = 0.49	 
y(1,3,0) = 0.66	 y(3,1,0) = 0.34	 
y(2,3,0) = 0.00	 y(3,2,0) = 1.00	 
y(0,1,1) = 0.11	 y(1,0,1) = 0.89	 
y(0,2,1) = 0.01	 y(2,0,1) = 0.99	 
y(0,3,1) = 0.00	 y(3,0,1) = 1.00	 
y(1,2,1) = 0.39	 y(2,1,1) = 0.61	 
y(1,3,1) = 0.08	 y(3,1,1) = 0.92	 
y(2,3,1) = 0.00	 y(3,2,1) = 1.00	 
y(0,1,2) = 0.27	 y(1,0,2) = 0.73	 
y(0,2,2) = 0.29	 y(2,0,2) = 0.71	 
y(0,3,2) = 1.00	 y(3,0,2) = 0.00	 
y(1,2,2) = 0.51	 y(2,1,2) = 0.49	 
y(1,3,2) = 0.49	 y(3,1,2) = 0.51	 
y(2,3,2) = 0.83	 y(3,2,2) = 0.17	 
y(0,1,3) = 0.35	 y(1,0,3) = 0.65	 
y(0,2,3) = 0.02	 y(2,0,3) = 0.98	 
y(0,3,3) = 0.09	 y(3,0,3) = 0.91	 
y(1,2,3) = 0.33	 y(2,1,3) = 0.67	 
y(1,3,3) = 0.34	 y(3,1,3) = 0.66	 
y(2,3,3) = 0.27	 y(3,2,3) = 0.73	 
obj:  0.7815957055966037
solutions:  1
+ 0.014930399640772335x(1,2) + 0.02346205657835655x(3,2) + 0.010103277952402328x(0,2) 
[(1, 2), (0, 1), (3, 2), (0, 0), (3, 0), (0, 2), (3, 1), (2, 1), (2, 0), (2, 2), (1, 0), (1, 1)]
cliques:  1 mip: 131
C:  30.62962962962963
x(0,0) = 0.84	 x(0,1) = 23.63	 x(0,2) = 17.63	 x(0,3) = 16.63	 
x(1,0) = 4.95	 x(1,1) = 17.63	 x(1,2) = 22.63	 x(1,3) = 10.63	 
x(2,0) = 24.98	 x(2,1) = 17.98	 x(2,2) = 14.98	 x(2,3) = 5.98	 
x(3,0) = 10.63	 x(3,1) = 0.63	 x(3,2) = 20.63	 x(3,3) = 7.63	 
y(0,1,0) = 0.30	 y(1,0,0) = 0.70	 
y(0,2,0) = 0.57	 y(2,0,0) = 0.43	 
y(0,3,0) = 0.99	 y(3,0,0) = 0.01	 
y(1,2,0) = 1.00	 y(2,1,0) = 0.00	 
y(1,3,0) = 0.81	 y(3,1,0) = 0.19	 
y(2,3,0) = 0.00	 y(3,2,0) = 1.00	 
y(0,1,1) = 0.39	 y(1,0,1) = 0.61	 
y(0,2,1) = 0.05	 y(2,0,1) = 0.95	 
y(0,3,1) = 0.00	 y(3,0,1) = 1.00	 
y(1,2,1) = 0.21	 y(2,1,1) = 0.79	 
y(1,3,1) = 0.39	 y(3,1,1) = 0.61	 
y(2,3,1) = 0.00	 y(3,2,1) = 1.00	 
y(0,1,2) = 0.39	 y(1,0,2) = 0.61	 
y(0,2,2) = 0.34	 y(2,0,2) = 0.66	 
y(0,3,2) = 0.83	 y(3,0,2) = 0.17	 
y(1,2,2) = 0.21	 y(2,1,2) = 0.79	 
y(1,3,2) = 0.26	 y(3,1,2) = 0.74	 
y(2,3,2) = 0.88	 y(3,2,2) = 0.12	 
y(0,1,3) = 0.39	 y(1,0,3) = 0.61	 
y(0,2,3) = 0.08	 y(2,0,3) = 0.92	 
y(0,3,3) = 0.30	 y(3,0,3) = 0.70	 
y(1,2,3) = 0.14	 y(2,1,3) = 0.86	 
y(1,3,3) = 0.00	 y(3,1,3) = 1.00	 
y(2,3,3) = 0.19	 y(3,2,3) = 0.81	 
obj:  0.9903510640610025
solutions:  1
+ 0.005025125628140705x(0,0) + 0.09045226130653267x(3,0) + 0.0050251256281407x(1,0) 
[(0, 1), (0, 0), (3, 0), (3, 1), (2, 1), (2, 0), (1, 0), (1, 1)]
cliques:  1 mip: 174
C:  33.179742530969165
x(0,0) = 7.94	 x(0,1) = 25.30	 x(0,2) = 19.30	 x(0,3) = 17.94	 
x(1,0) = 11.06	 x(1,1) = 19.06	 x(1,2) = 24.06	 x(1,3) = 12.06	 
x(2,0) = 25.30	 x(2,1) = 18.30	 x(2,2) = 15.30	 x(2,3) = 6.30	 
x(3,0) = 10.00	 x(3,1) = 0.00	 x(3,2) = 19.00	 x(3,3) = 7.00	 
y(0,1,0) = 0.27	 y(1,0,0) = 0.73	 
y(0,2,0) = 0.43	 y(2,0,0) = 0.57	 
y(0,3,0) = 0.33	 y(3,0,0) = 0.67	 
y(1,2,0) = 1.00	 y(2,1,0) = 0.00	 
y(1,3,0) = 0.31	 y(3,1,0) = 0.69	 
y(2,3,0) = 0.00	 y(3,2,0) = 1.00	 
y(0,1,1) = 0.21	 y(1,0,1) = 0.79	 
y(0,2,1) = 0.00	 y(2,0,1) = 1.00	 
y(0,3,1) = 0.00	 y(3,0,1) = 1.00	 
y(1,2,1) = 0.18	 y(2,1,1) = 0.82	 
y(1,3,1) = -0.00	 y(3,1,1) = 1.00	 
y(2,3,1) = 0.00	 y(3,2,1) = 1.00	 
y(0,1,2) = 0.91	 y(1,0,2) = 0.09	 
y(0,2,2) = 0.00	 y(2,0,2) = 1.00	 
y(0,3,2) = 0.29	 y(3,0,2) = 0.71	 
y(1,2,2) = 0.18	 y(2,1,2) = 0.82	 
y(1,3,2) = 0.48	 y(3,1,2) = 0.52	 
y(2,3,2) = 0.97	 y(3,2,2) = 0.03	 
y(0,1,3) = 0.33	 y(1,0,3) = 0.67	 
y(0,2,3) = 0.13	 y(2,0,3) = 0.87	 
y(0,3,3) = 0.50	 y(3,0,3) = 0.50	 
y(1,2,3) = 0.10	 y(2,1,3) = 0.90	 
y(1,3,3) = 0.00	 y(3,1,3) = 1.00	 
y(2,3,3) = 0.15	 y(3,2,3) = 0.85	 
obj:  0.8935658708189284
solutions:  1
+ 0.006167400881057264x(1,3) + 0.10102790014684285x(3,3) + 0.015271659324522747x(2,3) + 0.0008810572687224855x(0,3) 
[(0, 1), (0, 0), (1, 3), (3, 3), (3, 0), (1, 0), (3, 1), (2, 1), (2, 0), (2, 3), (0, 3), (1, 1)]
cliques:  1 mip: 201
C:  34.333333333333336
x(0,0) = 6.72	 x(0,1) = 25.90	 x(0,2) = 18.33	 x(0,3) = 16.72	 
x(1,0) = 1.83	 x(1,1) = 11.33	 x(1,2) = 16.33	 x(1,3) = 4.33	 
x(2,0) = 31.33	 x(2,1) = 24.33	 x(2,2) = 21.33	 x(2,3) = 12.33	 
x(3,0) = 10.62	 x(3,1) = 0.62	 x(3,2) = 24.33	 x(3,3) = 7.62	 
y(0,1,0) = 0.00	 y(1,0,0) = 1.00	 
y(0,2,0) = 0.68	 y(2,0,0) = 0.32	 
y(0,3,0) = 0.62	 y(3,0,0) = 0.38	 
y(1,2,0) = 1.00	 y(2,1,0) = 0.00	 
y(1,3,0) = 0.52	 y(3,1,0) = 0.48	 
y(2,3,0) = 0.00	 y(3,2,0) = 1.00	 
y(0,1,1) = 0.05	 y(1,0,1) = 0.95	 
y(0,2,1) = 0.21	 y(2,0,1) = 0.79	 
y(0,3,1) = 0.00	 y(3,0,1) = 1.00	 
y(1,2,1) = 0.57	 y(2,1,1) = 0.43	 
y(1,3,1) = 0.29	 y(3,1,1) = 0.71	 
y(2,3,1) = 0.00	 y(3,2,1) = 1.00	 
y(0,1,2) = 0.50	 y(1,0,2) = 0.50	 
y(0,2,2) = 0.24	 y(2,0,2) = 0.76	 
y(0,3,2) = 1.00	 y(3,0,2) = 0.00	 
y(1,2,2) = 0.57	 y(2,1,2) = 0.43	 
y(1,3,2) = 1.00	 y(3,1,2) = 0.00	 
y(2,3,2) = 1.00	 y(3,2,2) = 0.00	 
y(0,1,3) = 0.00	 y(1,0,3) = 1.00	 
y(0,2,3) = 0.20	 y(2,0,3) = 0.80	 
y(0,3,3) = 0.30	 y(3,0,3) = 0.70	 
y(1,2,3) = 0.53	 y(2,1,3) = 0.47	 
y(1,3,3) = 0.26	 y(3,1,3) = 0.74	 
y(2,3,3) = 0.00	 y(3,2,3) = 1.00	 
obj:  0.9534651536154334
solutions:  1
+ 0.00963719707755128x(1,2) + 0.015660445251020828x(3,2) + 0.004552636931115943x(1,3) + 0.045526369311159394x(3,3) + 0.002628326475695809x(0,2) 
[(1, 2), (0, 1), (3, 2), (1, 3), (3, 3), (0, 2), (3, 1), (2, 1), (2, 3), (2, 2), (0, 3), (1, 1)]
cliques:  1 mip: 179
C:  35.0
x(0,0) = 6.28	 x(0,1) = 25.35	 x(0,2) = 17.80	 x(0,3) = 16.29	 
x(1,0) = 5.76	 x(1,1) = 17.41	 x(1,2) = 22.41	 x(1,3) = 9.57	 
x(2,0) = 29.61	 x(2,1) = 22.61	 x(2,2) = 19.61	 x(2,3) = 10.61	 
x(3,0) = 10.57	 x(3,1) = 0.57	 x(3,2) = 22.30	 x(3,3) = 7.57	 
y(0,1,0) = 0.02	 y(1,0,0) = 0.98	 
y(0,2,0) = 0.70	 y(2,0,0) = 0.30	 
y(0,3,0) = 0.59	 y(3,0,0) = 0.41	 
y(1,2,0) = 1.00	 y(2,1,0) = 0.00	 
y(1,3,0) = 0.70	 y(3,1,0) = 0.30	 
y(2,3,0) = 0.00	 y(3,2,0) = 1.00	 
y(0,1,1) = 0.07	 y(1,0,1) = 0.93	 
y(0,2,1) = 0.16	 y(2,0,1) = 0.84	 
y(0,3,1) = 0.00	 y(3,0,1) = 1.00	 
y(1,2,1) = 0.51	 y(2,1,1) = 0.49	 
y(1,3,1) = 0.05	 y(3,1,1) = 0.95	 
y(2,3,1) = 0.00	 y(3,2,1) = 1.00	 
y(0,1,2) = 0.94	 y(1,0,2) = 0.06	 
y(0,2,2) = 0.19	 y(2,0,2) = 0.81	 
y(0,3,2) = 0.92	 y(3,0,2) = 0.08	 
y(1,2,2) = 0.31	 y(2,1,2) = 0.69	 
y(1,3,2) = 0.66	 y(3,1,2) = 0.34	 
y(2,3,2) = 0.84	 y(3,2,2) = 0.16	 
y(0,1,3) = 0.02	 y(1,0,3) = 0.98	 
y(0,2,3) = 0.14	 y(2,0,3) = 0.86	 
y(0,3,3) = 0.41	 y(3,0,3) = 0.59	 
y(1,2,3) = 0.36	 y(2,1,3) = 0.64	 
y(1,3,3) = 0.04	 y(3,1,3) = 0.96	 
y(2,3,3) = 0.00	 y(3,2,3) = 1.00	 
obj:  0.9861130530641482
solutions:  1
+ 0.0040356839422259795x(1,2) + 0.008708581138487647x(3,2) + 0.004460492778249791x(1,3) + 0.07901444350042493x(3,3) + 0.005734919286321183x(2,3) 
[(1, 2), (0, 1), (3, 2), (1, 3), (3, 3), (0, 2), (3, 1), (2, 1), (2, 3), (2, 2), (0, 3), (1, 1)]
cliques:  1 mip: 192
C:  35.00000000000001
x(0,0) = 1.83	 x(0,1) = 25.05	 x(0,2) = 19.05	 x(0,3) = 11.83	 
x(1,0) = 0.83	 x(1,1) = 12.00	 x(1,2) = 17.00	 x(1,3) = 5.00	 
x(2,0) = 28.68	 x(2,1) = 21.68	 x(2,2) = 18.68	 x(2,3) = 8.75	 
x(3,0) = 11.17	 x(3,1) = 1.17	 x(3,2) = 25.00	 x(3,3) = 8.17	 
y(0,1,0) = 0.00	 y(1,0,0) = 1.00	 
y(0,2,0) = 0.84	 y(2,0,0) = 0.16	 
y(0,3,0) = 0.97	 y(3,0,0) = 0.03	 
y(1,2,0) = 1.00	 y(2,1,0) = 0.00	 
y(1,3,0) = 0.57	 y(3,1,0) = 0.43	 
y(2,3,0) = 0.00	 y(3,2,0) = 1.00	 
y(0,1,1) = 0.00	 y(1,0,1) = 1.00	 
y(0,2,1) = 0.14	 y(2,0,1) = 0.86	 
y(0,3,1) = 0.00	 y(3,0,1) = 1.00	 
y(1,2,1) = 0.80	 y(2,1,1) = 0.20	 
y(1,3,1) = 0.38	 y(3,1,1) = 0.62	 
y(2,3,1) = 0.00	 y(3,2,1) = 1.00	 
y(0,1,2) = 0.43	 y(1,0,2) = 0.57	 
y(0,2,2) = 0.15	 y(2,0,2) = 0.85	 
y(0,3,2) = 0.98	 y(3,0,2) = 0.02	 
y(1,2,2) = 0.49	 y(2,1,2) = 0.51	 
y(1,3,2) = 1.00	 y(3,1,2) = 0.00	 
y(2,3,2) = 0.94	 y(3,2,2) = 0.06	 
y(0,1,3) = 0.15	 y(1,0,3) = 0.85	 
y(0,2,3) = 0.26	 y(2,0,3) = 0.74	 
y(0,3,3) = 0.08	 y(3,0,3) = 0.92	 
y(1,2,3) = 0.69	 y(2,1,3) = 0.31	 
y(1,3,3) = 0.84	 y(3,1,3) = 0.16	 
y(2,3,3) = 0.10	 y(3,2,3) = 0.90	 
obj:  0.9939709800115258
solutions:  1
+ 0.004585841215247914x(1,2) + 0.007451991974777868x(3,2) + 0.0044539982803095506x(1,3) + 0.07715486767937331x(3,3) + 0.00034393809114358884x(0,2) + 0.0057265692175408585x(2,3) + 0.001744530428967226x(0,3) 
[(1, 2), (0, 1), (3, 2), (1, 3), (3, 3), (0, 2), (3, 1), (2, 1), (2, 3), (2, 2), (0, 3), (1, 1)]
cliques:  1 mip: 0
C:  35.00000000000001
x(0,0) = 2.23	 x(0,1) = 25.05	 x(0,2) = 19.05	 x(0,3) = 12.23	 
x(1,0) = 1.23	 x(1,1) = 11.01	 x(1,2) = 16.01	 x(1,3) = 4.01	 
x(2,0) = 27.48	 x(2,1) = 20.48	 x(2,2) = 17.48	 x(2,3) = 7.08	 
x(3,0) = 11.48	 x(3,1) = 1.48	 x(3,2) = 25.00	 x(3,3) = 8.48	 
y(0,1,0) = 0.00	 y(1,0,0) = 1.00	 
y(0,2,0) = 0.83	 y(2,0,0) = 0.17	 
y(0,3,0) = 0.96	 y(3,0,0) = 0.04	 
y(1,2,0) = 1.00	 y(2,1,0) = 0.00	 
y(1,3,0) = 0.57	 y(3,1,0) = 0.43	 
y(2,3,0) = 0.00	 y(3,2,0) = 1.00	 
y(0,1,1) = 0.00	 y(1,0,1) = 1.00	 
y(0,2,1) = 0.09	 y(2,0,1) = 0.91	 
y(0,3,1) = 0.00	 y(3,0,1) = 1.00	 
y(1,2,1) = 0.81	 y(2,1,1) = 0.19	 
y(1,3,1) = 0.44	 y(3,1,1) = 0.56	 
y(2,3,1) = 0.00	 y(3,2,1) = 1.00	 
y(0,1,2) = 0.35	 y(1,0,2) = 0.65	 
y(0,2,2) = 0.10	 y(2,0,2) = 0.90	 
y(0,3,2) = 0.98	 y(3,0,2) = 0.02	 
y(1,2,2) = 0.45	 y(2,1,2) = 0.55	 
y(1,3,2) = 1.00	 y(3,1,2) = 0.00	 
y(2,3,2) = 0.98	 y(3,2,2) = 0.02	 
y(0,1,3) = 0.12	 y(1,0,3) = 0.88	 
y(0,2,3) = 0.17	 y(2,0,3) = 0.83	 
y(0,3,3) = 0.09	 y(3,0,3) = 0.91	 
y(1,2,3) = 0.63	 y(2,1,3) = 0.37	 
y(1,3,3) = 0.85	 y(3,1,3) = 0.15	 
y(2,3,3) = 0.18	 y(3,2,3) = 0.82	 
obj:  0.904903547852632
solutions:  1
+ 0.05384615384615383x(1,3) + 0.023076923076923078x(3,3) + 0.0564102564102564x(2,3) + 0.007692307692307701x(0,3) 
[(1, 2), (0, 1), (3, 2), (1, 3), (3, 3), (0, 2), (3, 1), (2, 1), (2, 3), (2, 2), (0, 3), (1, 1)]
cliques:  1 mip: 0
C:  35.00000000000001
x(0,0) = 2.17	 x(0,1) = 25.05	 x(0,2) = 19.05	 x(0,3) = 12.17	 
x(1,0) = 1.17	 x(1,1) = 11.88	 x(1,2) = 16.88	 x(1,3) = 4.88	 
x(2,0) = 27.84	 x(2,1) = 20.84	 x(2,2) = 17.84	 x(2,3) = 8.01	 
x(3,0) = 11.31	 x(3,1) = 1.31	 x(3,2) = 25.00	 x(3,3) = 8.31	 
y(0,1,0) = 0.00	 y(1,0,0) = 1.00	 
y(0,2,0) = 0.84	 y(2,0,0) = 0.16	 
y(0,3,0) = 0.96	 y(3,0,0) = 0.04	 
y(1,2,0) = 1.00	 y(2,1,0) = 0.00	 
y(1,3,0) = 0.56	 y(3,1,0) = 0.44	 
y(2,3,0) = 0.00	 y(3,2,0) = 1.00	 
y(0,1,1) = 0.00	 y(1,0,1) = 1.00	 
y(0,2,1) = 0.11	 y(2,0,1) = 0.89	 
y(0,3,1) = 0.00	 y(3,0,1) = 1.00	 
y(1,2,1) = 0.83	 y(2,1,1) = 0.17	 
y(1,3,1) = 0.40	 y(3,1,1) = 0.60	 
y(2,3,1) = 0.00	 y(3,2,1) = 1.00	 
y(0,1,2) = 0.42	 y(1,0,2) = 0.58	 
y(0,2,2) = 0.11	 y(2,0,2) = 0.89	 
y(0,3,2) = 0.98	 y(3,0,2) = 0.02	 
y(1,2,2) = 0.42	 y(2,1,2) = 0.58	 
y(1,3,2) = 1.00	 y(3,1,2) = 0.00	 
y(2,3,2) = 0.96	 y(3,2,2) = 0.04	 
y(0,1,3) = 0.15	 y(1,0,3) = 0.85	 
y(0,2,3) = 0.21	 y(2,0,3) = 0.79	 
y(0,3,3) = 0.08	 y(3,0,3) = 0.92	 
y(1,2,3) = 0.67	 y(2,1,3) = 0.33	 
y(1,3,3) = 0.85	 y(3,1,3) = 0.15	 
y(2,3,3) = 0.13	 y(3,2,3) = 0.87	 
obj:  0.9981445197017039
solutions:  1
+ 0.006122448979591834x(1,3) + 0.10010465724751437x(3,3) + 0.014599686028257477x(2,3) + 0.0016221873364730525x(0,3) 
[(0, 0), (1, 3), (3, 3), (3, 0), (2, 0), (2, 3), (1, 0), (0, 3)]
cliques:  1 mip: 0
C:  35.00000000000001
x(0,0) = 2.08	 x(0,1) = 25.05	 x(0,2) = 19.05	 x(0,3) = 12.08	 
x(1,0) = 1.08	 x(1,1) = 11.74	 x(1,2) = 16.74	 x(1,3) = 4.74	 
x(2,0) = 27.94	 x(2,1) = 20.94	 x(2,2) = 17.94	 x(2,3) = 8.16	 
x(3,0) = 11.31	 x(3,1) = 1.31	 x(3,2) = 25.00	 x(3,3) = 8.31	 
y(0,1,0) = 0.00	 y(1,0,0) = 1.00	 
y(0,2,0) = 0.84	 y(2,0,0) = 0.16	 
y(0,3,0) = 0.96	 y(3,0,0) = 0.04	 
y(1,2,0) = 1.00	 y(2,1,0) = 0.00	 
y(1,3,0) = 0.57	 y(3,1,0) = 0.43	 
y(2,3,0) = 0.00	 y(3,2,0) = 1.00	 
y(0,1,1) = 0.00	 y(1,0,1) = 1.00	 
y(0,2,1) = 0.11	 y(2,0,1) = 0.89	 
y(0,3,1) = 0.00	 y(3,0,1) = 1.00	 
y(1,2,1) = 0.83	 y(2,1,1) = 0.17	 
y(1,3,1) = 0.40	 y(3,1,1) = 0.60	 
y(2,3,1) = 0.00	 y(3,2,1) = 1.00	 
y(0,1,2) = 0.41	 y(1,0,2) = 0.59	 
y(0,2,2) = 0.12	 y(2,0,2) = 0.88	 
y(0,3,2) = 0.98	 y(3,0,2) = 0.02	 
y(1,2,2) = 0.42	 y(2,1,2) = 0.58	 
y(1,3,2) = 1.00	 y(3,1,2) = 0.00	 
y(2,3,2) = 0.96	 y(3,2,2) = 0.04	 
y(0,1,3) = 0.14	 y(1,0,3) = 0.86	 
y(0,2,3) = 0.22	 y(2,0,3) = 0.78	 
y(0,3,3) = 0.08	 y(3,0,3) = 0.92	 
y(1,2,3) = 0.67	 y(2,1,3) = 0.33	 
y(1,3,3) = 0.85	 y(3,1,3) = 0.15	 
y(2,3,3) = 0.13	 y(3,2,3) = 0.87	 
obj:  0.999625338910355
solutions:  1
+ 0.022580645161289613x(1,3) + 0.07419354838709792x(3,3) + 0.029032258064515527x(2,3) + 0.0032258064516128x(0,3) 
[(0, 0), (1, 3), (3, 3), (3, 0), (2, 0), (2, 3), (1, 0), (0, 3)]
cliques:  1 mip: 0
C:  35.00000000000001
x(0,0) = 2.08	 x(0,1) = 25.05	 x(0,2) = 19.05	 x(0,3) = 12.08	 
x(1,0) = 1.08	 x(1,1) = 11.75	 x(1,2) = 16.75	 x(1,3) = 4.75	 
x(2,0) = 27.94	 x(2,1) = 20.94	 x(2,2) = 17.94	 x(2,3) = 8.16	 
x(3,0) = 11.31	 x(3,1) = 1.31	 x(3,2) = 25.00	 x(3,3) = 8.31	 
y(0,1,0) = 0.00	 y(1,0,0) = 1.00	 
y(0,2,0) = 0.84	 y(2,0,0) = 0.16	 
y(0,3,0) = 0.96	 y(3,0,0) = 0.04	 
y(1,2,0) = 1.00	 y(2,1,0) = 0.00	 
y(1,3,0) = 0.57	 y(3,1,0) = 0.43	 
y(2,3,0) = 0.00	 y(3,2,0) = 1.00	 
y(0,1,1) = 0.00	 y(1,0,1) = 1.00	 
y(0,2,1) = 0.11	 y(2,0,1) = 0.89	 
y(0,3,1) = 0.00	 y(3,0,1) = 1.00	 
y(1,2,1) = 0.83	 y(2,1,1) = 0.17	 
y(1,3,1) = 0.40	 y(3,1,1) = 0.60	 
y(2,3,1) = 0.00	 y(3,2,1) = 1.00	 
y(0,1,2) = 0.41	 y(1,0,2) = 0.59	 
y(0,2,2) = 0.12	 y(2,0,2) = 0.88	 
y(0,3,2) = 0.98	 y(3,0,2) = 0.02	 
y(1,2,2) = 0.42	 y(2,1,2) = 0.58	 
y(1,3,2) = 1.00	 y(3,1,2) = 0.00	 
y(2,3,2) = 0.96	 y(3,2,2) = 0.04	 
y(0,1,3) = 0.14	 y(1,0,3) = 0.86	 
y(0,2,3) = 0.22	 y(2,0,3) = 0.78	 
y(0,3,3) = 0.08	 y(3,0,3) = 0.92	 
y(1,2,3) = 0.67	 y(2,1,3) = 0.33	 
y(1,3,3) = 0.85	 y(3,1,3) = 0.15	 
y(2,3,3) = 0.13	 y(3,2,3) = 0.87	 
obj:  1.0000000000000002
erro
[(0, 0), (1, 3), (3, 3), (3, 0), (2, 0), (2, 3), (1, 0), (0, 3)]
cliques:  0 mip: 0
iterações: 11 cortes cliques encontrados: 11 mip: 1020 objective:  35.00000000000001
Coin0506I Presolve 157 (-171) rows, 90 (-71) columns and 490 (-260) elements
Clp1000I sum of infeasibilities 1.79124e-08 - average 1.14092e-10, 0 fixed columns
Coin0506I Presolve 157 (0) rows, 90 (0) columns and 490 (0) elements
Clp0029I End of values pass after 90 iterations
Clp0000I Optimal - objective value 29
Clp0000I Optimal - objective value 29
Coin0511I After Postsolve, objective 29, infeasibilities - dual 0 (0), primal 0 (0)
Clp0000I Optimal - objective value 29
Clp0000I Optimal - objective value 29
Clp0000I Optimal - objective value 29
Coin0511I After Postsolve, objective 29, infeasibilities - dual 0 (0), primal 0 (0)
Clp0032I Optimal objective 29 - 0 iterations time 0.012, Presolve 0.00, Idiot 0.01
Coin3009W Conflict graph built in 0.000 seconds, density: 0.070%
